TITLE
Test element
GLOBAL                                         1.0       1.0
DEFAULTS                                                              NEW-DEFA
BEAM
BEAMPOS
GEOBEGIN                                                              COMBNAME
    0    0          
* Black body
SPH blkbody    0.0 0.0 0.0 10000000.0
* Void sphere
SPH void       0.0 0.0 0.0 100000.0
* Bodies from the include file
* START_CUT_BODIES
RPP TCPCHB2    0.0 0.3 -4.0 4.0 0.0 0.6
RCC TCPCHB21   8510.6 -2.5 0. 0.0 5. 0. 8510.6
RCC TCPCHB22   8510.6 -3.0 0. 0.0 6. 0. 8510.4
PLA TCPCHB23   1.0 0.0 21276.499984307637 8510.6 0. 0.
* END_CUT_BODIES
END
* Black hole
BLKBODY      5 +blkbody -void
* Void around
VOID         5 +void -TCP_BODY
* Region from the include file
* START_CUT_REGIONS
TCPCHB2R    5 | +TCPCHB2 +TCPCHB21 -TCPCHB22 +TCPCHB23
TCPCHB2B    5 | +TCPCHB2 +TCPCHB22
              | +TCPCHB2 -TCPCHB23
              | +TCPCHB2 -TCPCHB21
END
GEOEND
* ..+....1....+....2....+....3....+....4....+....5....+....6....+....7..
ASSIGNMA    BLCKHOLE   BLKBODY
ASSIGNMA      VACUUM      VOID
#include ../materials/materials.inp
* START_CUT_MATERIALS
* ..+....1....+....2....+....3....+....4....+....5....+....6....+....7....+..
ASSIGNMA    SILICON   TCPCHB2R
ASSIGNMA     VACUUM   TCPCHB2B
* 
* END_CUT_MATERIALS
*
* START_CUT_STEPSIZES
* END_CUT_STEPSIZES
RANDOMIZ         1.0
START
STOP
